************************************************************************
file with basedata            : md378_.bas
initial value random generator: 357464772
************************************************************************
projects                      :  1
jobs (incl. supersource/sink ):  22
horizon                       :  163
RESOURCES
  - renewable                 :  2   R
  - nonrenewable              :  2   N
  - doubly constrained        :  0   D
************************************************************************
PROJECT INFORMATION:
pronr.  #jobs rel.date duedate tardcost  MPM-Time
    1     20      0       29        4       29
************************************************************************
PRECEDENCE RELATIONS:
jobnr.    #modes  #successors   successors
   1        1          3           2   3   4
   2        3          3           5   6   7
   3        3          3           5   6   8
   4        3          2          10  14
   5        3          1          19
   6        3          3          10  11  20
   7        3          3           8  13  20
   8        3          2           9  12
   9        3          3          16  17  19
  10        3          2          15  17
  11        3          3          13  15  17
  12        3          2          14  21
  13        3          2          14  21
  14        3          1          19
  15        3          1          18
  16        3          1          18
  17        3          1          18
  18        3          1          21
  19        3          1          22
  20        3          1          22
  21        3          1          22
  22        1          0        
************************************************************************
REQUESTS/DURATIONS:
jobnr. mode duration  R 1  R 2  N 1  N 2
------------------------------------------------------------------------
  1      1     0       0    0    0    0
  2      1     3       0    3    2    3
         2     9       0    3    2    2
         3    10       4    0    1    1
  3      1     1       9    0    6    3
         2     7       9    0    4    2
         3    10       0    3    3    2
  4      1     4       8    0    7    2
         2     6       0    7    5    2
         3     9       3    0    4    2
  5      1     1       8    0    6   10
         2     2       0    6    6   10
         3     7       0    5    4   10
  6      1     4       0   10    3    3
         2     5       3    0    2    3
         3     6       0    7    1    3
  7      1     3       8    0    9    6
         2     8       7    0    8    6
         3    10       0    9    8    3
  8      1     5       0    8    7    9
         2     6       0    7    5    9
         3     6       0    8    2    7
  9      1     5       0    7    8    7
         2     9       6    0    8    4
         3     9       0    5    7    2
 10      1     1       0    7    9    7
         2     7       0    5    8    6
         3    10       7    0    8    3
 11      1     6       3    0    9    5
         2     8       0    8    5    2
         3     8       1    0    5    2
 12      1     1       0    9    2    8
         2     1       4    0    2    6
         3     7       0   10    2    6
 13      1     5       0    1    8    3
         2     8       0    1    4    3
         3    10       3    0    1    2
 14      1     4       0   10    6    5
         2     5       0    9    5    3
         3     9       0    9    5    1
 15      1     4       0    3    2   10
         2     6       0    2    1   10
         3     6       0    1    2    9
 16      1     1      10    0    8    6
         2     6       0    4    7    4
         3     7       9    0    7    3
 17      1     4       0    8    6    9
         2     6       0    8    2    8
         3     6       0    7    4    8
 18      1     4       0    5    6    9
         2     6       0    4    5    8
         3     6       0    5    5    6
 19      1     7       0    7    6    6
         2     9       0    5    4    5
         3    10       0    4    4    5
 20      1     5       0    5    4    8
         2     5       0    6    3    8
         3     7       4    0    2    7
 21      1     3       5    0   10    5
         2     4       4    0    7    5
         3    10       3    0    7    4
 22      1     0       0    0    0    0
************************************************************************
RESOURCEAVAILABILITIES:
  R 1  R 2  N 1  N 2
   14   20  124  124
************************************************************************
MAXIMAL LAGS:
from  to  type  delay
    1   12   ES      0
    1    2   ES      0
    2   12   ES      0
    1    3   ES      0
    3   12   ES      0
    1    4   ES      0
    4   12   ES      0
    1    5   ES      0
    5   12   ES      0
    1    6   ES      0
    6   12   ES      0
    1    7   ES      0
    7   12   ES      0
    1    8   ES      0
    8   12   ES      0
    1    9   ES      0
    9   12   ES      0
    1   10   ES      0
   10   12   ES      0
    1   11   ES      0
   11   12   ES      0
    1   12   ES      0
    2    5   SS    -11
    2    5   SE    -11
    2    5   ES     -7
    2    5   EE     -2
    2    6   SS     -1
    2    6   SE     -4
    6    2   SE      0
    2    6   ES      0
    2    6   EE      8
    2    7   SS     -4
    2    7   SE     -2
    2    7   ES     -5
    2    7   EE     -5
    3    5   SS     -3
    3    5   SE      2
    3    5   ES      7
    3    5   EE      4
    3    6   SS     -1
    3    6   SE     -8
    3    6   ES      6
    3    6   EE     -4
    3    8   SS      8
    3    8   SE      8
    3    8   ES      4
    3    8   EE     -3
    4   10   SS     -3
    4   10   SE      2
    4   10   ES    -12
    4   10   EE     -3
    4   14   SS     -9
    4   14   SE     10
    4   14   ES     10
    4   14   EE     -3
    5   19   SS     -1
    5   19   SE    -11
    5   19   ES     -2
    5   19   EE      9
    6   10   SS     11
    6   10   SE      0
    6   10   ES     -6
    6   10   EE     12
    6   11   SS     -6
    6   11   SE      3
    6   11   ES    -11
    6   11   EE      1
    6   20   SS      7
    6   20   SE     -2
    6   20   ES      8
    6   20   EE     -9
    7    8   SS    -10
    7    8   SE      4
    7    8   ES     -9
    7    8   EE      6
    7   13   SS      0
    7   13   SE      8
    7   13   ES     -9
    7   13   EE     -6
    7   20   SS      5
    7   20   SE      8
    7   20   ES      2
    7   20   EE     -1
    8    9   SS      8
    8    9   SE      7
    8    9   ES     -1
    8    9   EE     -2
    9   16   SS      6
    9   16   SE     -4
    9   16   ES     -7
    9   16   EE     -7
    9   17   SS      6
    9   17   SE      4
    9   17   ES     -9
    9   17   EE      9
    9   19   SS     -6
    9   19   SE     -5
    9   19   ES      8
    9   19   EE     -8
   10   15   SS     -3
   10   15   SE    -10
   10   15   ES      7
   10   15   EE      9
   10   17   SS      7
   10   17   SE      2
   10   17   ES      2
   10   17   EE     11
   11   13   SS    -10
   11   13   SE    -10
   11   13   ES      4
   11   13   EE    -12
   11   15   SS     -9
   11   15   SE     10
   11   15   ES     10
   11   15   EE      0
   11   17   SS      2
   11   17   SE     10
   11   17   ES      2
   11   17   EE     -3
   12   14   SS     -6
   12   14   SE      0
   12   14   ES    -11
   12   14   EE     -4
   12   21   SS      5
   12   21   SE      7
   12   21   ES    -12
   12   21   EE      6
   13   14   SS      4
   13   14   SE     -2
   13   14   ES      7
   13   14   EE     -8
   13   21   SS      2
   13   21   SE     -9
   13   21   ES     -4
   13   21   EE     -5
   14   19   SS      9
   14   19   SE      1
   14   19   ES      6
   14   19   EE     12
   15   18   SS     -4
   15   18   SE      3
   15   18   ES     -4
   15   18   EE      7
   16   18   SS     -6
   16   18   SE      8
   16   18   ES     -3
   16   18   EE     12
   17   18   SS      3
   17   18   SE      0
   17   18   ES     10
   17   18   EE      4
   18   21   SS      5
   18   21   SE      6
   18   21   ES     -6
   18   21   EE     10
   19   22   SS      4
   19   22   SE      1
   19   22   ES    -10
   19   22   EE      0
   20   22   SS      8
   20   22   SE     11
   20   22   ES    -10
   20   22   EE     10
   21   22   SS      4
   21   22   SE      9
   21   22   ES      3
   21   22   EE      2
************************************************************************
